Route #1: 1 1 3 9 19 31 4 18 14 1 
Route #2: 1 34 17 29 24 16 7 12 1 
Route #3: 1 5 20 6 36 25 15 13 1 
Route #4: 1 33 28 23 22 11 27 26 21 1 
Route #5: 1 8 30 10 2 1 
Route #6: 1 35 32 1 

Cost 1378.13
Time 0.2075


 * Another infos *

 Iterations: 37 Time: 0.2075 sec - 0.0035 min - 0.0001 horas
0.0000 h 0.0035 min
Problem dimension: 37
